db/data/479924832295049265417519222124291033.z3.out
-------------------
2500.217759716
